k = 20;
b = 10;
AtomicConstraints =  [|
1, 2|
	1, 3|
	1, 4|
	1, 5|
	1, 6|
	1, 7|
	1, 8|
	1, 9|
	1, 10|
	2, 3|
	2, 4|
	2, 5|
	2, 6|
	2, 7|
	2, 8|
	2, 9|
	2, 10|
	3, 4|
	3, 5|
	3, 6|
	3, 7|
	3, 8|
	3, 9|
	3, 10|
	4, 5|
	4, 6|
	4, 7|
	4, 8|
	4, 9|
	4, 10|
	5, 6|
	5, 7|
	5, 8|
	5, 9|
	5, 10|
	6, 7|
	6, 8|
	6, 9|
	6, 10|
	7, 8|
	7, 9|
	7, 10|
	8, 9|
	8, 10|
	9, 10|
	13, 11|
	13, 12|
	14, 12|
	15, 11|
	15, 12|
	15, 13|
	15, 14|
	16, 12|
	16, 14|
	17, 12|
	17, 13|
	17, 14|
	17, 15|
	17, 16|
	18, 14|
	18, 16|];
DisjunctiveConstraints =  [|1, 15, 1, 5|
	1, 16, 1, 6|
	1, 17, 1, 7|
	1, 18, 1, 8|
	1, 19, 1, 9|
	1, 20, 1, 10|
	2, 16, 2, 6|
	2, 17, 2, 7|
	2, 18, 2, 8|
	2, 19, 2, 9|
	2, 20, 2, 10|
	3, 17, 3, 7|
	3, 18, 3, 8|
	3, 19, 3, 9|
	3, 20, 3, 10|
	4, 18, 4, 8|
	4, 19, 4, 9|
	4, 20, 4, 10|
	5, 19, 5, 9|
	5, 20, 5, 10|
	6, 20, 6, 10|
	13, 11, 13, 1|
	13, 12, 13, 2|
	14, 11, 1, 14|
	14, 12, 14, 2|
	15, 12, 15, 2|
	15, 13, 15, 3|
	15, 14, 15, 4|
	16, 13, 3, 16|
	16, 14, 16, 4|
	17, 14, 17, 4|
	17, 15, 17, 5|
	17, 16, 17, 6|
	18, 15, 5, 18|
	18, 16, 18, 6|
	18, 17, 18, 19|
	19, 15, 5, 19|
	19, 16, 6, 19|
	19, 18, 19, 20|
	20, 13, 3, 20|
	20, 16, 6, 20|];
SoftAtomicConstraints =  [|
11, 12|
13, 14|
15, 16|
17, 18|
18, 19|
19, 20|];
DirectSuccessors =  [];
